% demand
num_movements = 35;
loading_factor = [1200, 1500, 1700, 1250, 1400, 800, 900, 850, 1100, 1750, 1200, 1900, 1700, 1300, 1650, 1250, 1450, 1300, 1250, 1900, 1900, 1300, 1600, 1300, 2000, 1400, 1300, 850, 1150, 1800, 1050, 1100, 850, 1750, 1150];
pickup_time = [0, 0, 0, 0, 1, 2, 2, 4, 4, 5, 5, 5, 5, 5, 5, 6, 6, 6, 7, 7, 7, 8, 9, 9, 10, 10, 11, 11, 11, 11, 11, 11, 11, 11, 11];
delivery_time = [5, 9, 2, 3, 2, 3, 3, 5, 5, 6, 6, 7, 6, 6, 9, 7, 9, 9, 8, 9, 9, 11, 10, 10, 11, 11, 14, 14, 14, 14, 14, 14, 14, 14, 14];

% transporter definition
total_capacity = 11000;
num_decks = 4;
capacity = [3000, 3000, 1000, 4000];

% ways out of decks
num_ways_out = 2;
paths_out = array3d(decks, ways_out, decks, [
% ways out of deck d1
2, 4, 0, 0, 3, 4, 0, 0, 

% ways out of deck d2
4, 0, 0, 0, 0, 0, 0, 0,	

% ways out of deck d3
4, 0, 0, 0, 0, 0, 0, 0,	

% ways out of deck d4
0, 0, 0, 0,	0, 0, 0, 0,	

]);

